db/inputs/281851882722167267981257215281659413703.smt2
(set-logic QF_FP)
(declare-const x0 (_ FloatingPoint 8 24))
(declare-const x1 (_ FloatingPoint 8 24))
(declare-const x2 (_ FloatingPoint 8 24))
(declare-const x3 (_ FloatingPoint 8 24))
(assert (fp.eq (fp.neg (fp.sub RNE x1 x2)) (fp.mul RNE (fp.add RNE x1 x3) (fp.neg x1))))
(assert (fp.lt (fp.div RNE (fp.sub RNE x2 x3) (fp.div RNE x1 x3)) (fp.sub RNE (fp.neg x2) (fp.sub RNE x2 x2))))
(assert (fp.gt (fp.mul RNE (fp.mul RNE x2 x3) (fp.neg x3)) (fp.mul RNE (fp.add RNE x0 x0) (fp.add RNE x0 x3))))
(check-sat)
