db/data/281851882722167267981257215281659413703.z3.out
sat
-------------------
14.004682820
